NAME : pairopt.-196226.tour
COMMENT : Length = -196226
COMMENT : Found by LKH-3 [Keld Helsgaun] Tue Mar  4 23:03:05 2025
TYPE : TOUR
DIMENSION : 18
TOUR_SECTION
1
3
15
8
10
16
17
4
14
13
12
6
18
2
11
5
7
9
-1
EOF
